problems/csplib-prob065/opd-models/compact/O0/minion/model_1-lebbah_et_al_19_20_9-solution000001.solution
language Essence 1.3

letting lambda be 4
letting opd be
        {{2, 3, 4, 8, 10, 14, 16, 19, 20}, {2, 3, 5, 9, 11, 13, 15, 19, 20}, {2, 3, 7, 8, 11, 12, 14, 15, 17},
         {2, 3, 7, 9, 10, 12, 13, 16, 18}, {2, 4, 5, 9, 11, 14, 16, 17, 18}, {2, 4, 6, 8, 11, 12, 13, 18, 20},
         {2, 4, 6, 9, 10, 12, 15, 17, 19}, {2, 5, 6, 7, 8, 15, 16, 18, 19}, {2, 5, 6, 7, 10, 13, 14, 17, 20},
         {3, 4, 5, 8, 10, 13, 15, 17, 18}, {3, 4, 6, 7, 9, 14, 15, 18, 20}, {3, 4, 6, 7, 11, 13, 16, 17, 19},
         {3, 5, 6, 8, 9, 12, 16, 17, 20}, {3, 5, 6, 10, 11, 12, 14, 18, 19}, {4, 5, 7, 8, 9, 12, 13, 14, 19},
         {4, 5, 7, 10, 11, 12, 15, 16, 20}, {6, 8, 9, 10, 11, 13, 14, 15, 16}, {7, 8, 9, 10, 11, 17, 18, 19, 20},
         {12, 13, 14, 15, 16, 17, 18, 19, 20}}
$ Visualisation for opd
$  2  3  4  8 10 14 16 19 20
$  2  3  5  9 11 13 15 19 20
$  2  3  7  8 11 12 14 15 17
$  2  3  7  9 10 12 13 16 18
$  2  4  5  9 11 14 16 17 18
$  2  4  6  8 11 12 13 18 20
$  2  4  6  9 10 12 15 17 19
$  2  5  6  7  8 15 16 18 19
$  2  5  6  7 10 13 14 17 20
$  3  4  5  8 10 13 15 17 18
$  3  4  6  7  9 14 15 18 20
$  3  4  6  7 11 13 16 17 19
$  3  5  6  8  9 12 16 17 20
$  3  5  6 10 11 12 14 18 19
$  4  5  7  8  9 12 13 14 19
$  4  5  7 10 11 12 15 16 20
$  6  8  9 10 11 13 14 15 16
$  7  8  9 10 11 17 18 19 20
$ 12 13 14 15 16 17 18 19 20

