problems/csplib-prob065/opd-models/noch/O0/minion/model_1-lebbah_et_al_19_20_9-solution000001.eprime-solution
language ESSENCE' 1.0

letting lambda be 4
letting opd_ExplicitR2_Occurrence be
        [[false, false, false, false, false, false, false, false, false, false, false, true, true, true, true, true,
          true, true, true, true;
              int(1..20)],
         [false, false, false, false, false, false, true, true, true, true, true, false, false, false, false, false,
          true, true, true, true;
              int(1..20)],
         [false, false, false, false, false, true, false, true, true, true, true, false, true, true, true, true, false,
          false, false, false;
              int(1..20)],
         [false, false, false, true, true, false, true, false, false, true, true, true, false, false, true, true, false,
          false, false, true;
              int(1..20)],
         [false, false, false, true, true, false, true, true, true, false, false, true, true, true, false, false, false,
          false, true, false;
              int(1..20)],
         [false, false, true, false, true, true, false, false, false, true, true, true, false, true, false, false,
          false, true, true, false;
              int(1..20)],
         [false, false, true, false, true, true, false, true, true, false, false, true, false, false, false, true, true,
          false, false, true;
              int(1..20)],
         [false, false, true, true, false, true, true, false, false, false, true, false, true, false, false, true, true,
          false, true, false;
              int(1..20)],
         [false, false, true, true, false, true, true, false, true, false, false, false, false, true, true, false,
          false, true, false, true;
              int(1..20)],
         [false, false, true, true, true, false, false, true, false, true, false, false, true, false, true, false, true,
          true, false, false;
              int(1..20)],
         [false, true, false, false, true, true, true, false, false, true, false, false, true, true, false, false, true,
          false, false, true;
              int(1..20)],
         [false, true, false, false, true, true, true, true, false, false, false, false, false, false, true, true,
          false, true, true, false;
              int(1..20)],
         [false, true, false, true, false, true, false, false, true, true, false, true, false, false, true, false, true,
          false, true, false;
              int(1..20)],
         [false, true, false, true, false, true, false, true, false, false, true, true, true, false, false, false,
          false, true, false, true;
              int(1..20)],
         [false, true, false, true, true, false, false, false, true, false, true, false, false, true, false, true, true,
          true, false, false;
              int(1..20)],
         [false, true, true, false, false, false, true, false, true, true, false, true, true, false, false, true, false,
          true, false, false;
              int(1..20)],
         [false, true, true, false, false, false, true, true, false, false, true, true, false, true, true, false, true,
          false, false, false;
              int(1..20)],
         [false, true, true, false, true, false, false, false, true, false, true, false, true, false, true, false,
          false, false, true, true;
              int(1..20)],
         [false, true, true, true, false, false, false, true, false, true, false, false, false, true, false, true,
          false, false, true, true;
              int(1..20)];
             int(1..19)]
